letting x be 5
letting y be 5
letting step be 10
letting thermcount be 9


letting therms be [
    [  1,  2,  3,  4, 13],
    [ 52, 51, 73, 81, 12],
    [ 43, 61, 72, 82, 11],
    [ 42, 62, 71, 83, 21],
    [ 41, 33, 32, 31, 22]
]

letting rowsums be [3,4,2,2,3]
letting colsums be [3,2,3,3,3]